c generated by sgen
p cnf 125 260
-2 -3 -4 0
-1 -3 -4 0
-1 -2 -4 0
-1 -2 -3 0
-6 -7 -8 0
-5 -7 -8 0
-5 -6 -8 0
-5 -6 -7 0
-10 -11 -12 0
-9 -11 -12 0
-9 -10 -12 0
-9 -10 -11 0
-14 -15 -16 0
-13 -15 -16 0
-13 -14 -16 0
-13 -14 -15 0
-18 -19 -20 0
-17 -19 -20 0
-17 -18 -20 0
-17 -18 -19 0
-22 -23 -24 0
-21 -23 -24 0
-21 -22 -24 0
-21 -22 -23 0
-26 -27 -28 0
-25 -27 -28 0
-25 -26 -28 0
-25 -26 -27 0
-30 -31 -32 0
-29 -31 -32 0
-29 -30 -32 0
-29 -30 -31 0
-34 -35 -36 0
-33 -35 -36 0
-33 -34 -36 0
-33 -34 -35 0
-38 -39 -40 0
-37 -39 -40 0
-37 -38 -40 0
-37 -38 -39 0
-42 -43 -44 0
-41 -43 -44 0
-41 -42 -44 0
-41 -42 -43 0
-46 -47 -48 0
-45 -47 -48 0
-45 -46 -48 0
-45 -46 -47 0
-50 -51 -52 0
-49 -51 -52 0
-49 -50 -52 0
-49 -50 -51 0
-54 -55 -56 0
-53 -55 -56 0
-53 -54 -56 0
-53 -54 -55 0
-58 -59 -60 0
-57 -59 -60 0
-57 -58 -60 0
-57 -58 -59 0
-62 -63 -64 0
-61 -63 -64 0
-61 -62 -64 0
-61 -62 -63 0
-66 -67 -68 0
-65 -67 -68 0
-65 -66 -68 0
-65 -66 -67 0
-70 -71 -72 0
-69 -71 -72 0
-69 -70 -72 0
-69 -70 -71 0
-74 -75 -76 0
-73 -75 -76 0
-73 -74 -76 0
-73 -74 -75 0
-78 -79 -80 0
-77 -79 -80 0
-77 -78 -80 0
-77 -78 -79 0
-82 -83 -84 0
-81 -83 -84 0
-81 -82 -84 0
-81 -82 -83 0
-86 -87 -88 0
-85 -87 -88 0
-85 -86 -88 0
-85 -86 -87 0
-90 -91 -92 0
-89 -91 -92 0
-89 -90 -92 0
-89 -90 -91 0
-94 -95 -96 0
-93 -95 -96 0
-93 -94 -96 0
-93 -94 -95 0
-98 -99 -100 0
-97 -99 -100 0
-97 -98 -100 0
-97 -98 -99 0
-102 -103 -104 0
-101 -103 -104 0
-101 -102 -104 0
-101 -102 -103 0
-106 -107 -108 0
-105 -107 -108 0
-105 -106 -108 0
-105 -106 -107 0
-110 -111 -112 0
-109 -111 -112 0
-109 -110 -112 0
-109 -110 -111 0
-114 -115 -116 0
-113 -115 -116 0
-113 -114 -116 0
-113 -114 -115 0
-118 -119 -120 0
-117 -119 -120 0
-117 -118 -120 0
-117 -118 -119 0
-121 -122 -123 0
-121 -122 -124 0
-121 -122 -125 0
-121 -123 -124 0
-121 -123 -125 0
-121 -124 -125 0
-122 -123 -124 0
-122 -123 -125 0
-122 -124 -125 0
-123 -124 -125 0
97 63 105 0
43 63 105 0
43 97 105 0
43 97 63 0
94 121 61 0
25 121 61 0
25 94 61 0
25 94 121 0
83 28 41 0
80 28 41 0
80 83 41 0
80 83 28 0
90 34 56 0
84 34 56 0
84 90 56 0
84 90 34 0
27 23 3 0
92 23 3 0
92 27 3 0
92 27 23 0
48 124 39 0
112 124 39 0
112 48 39 0
112 48 124 0
76 104 81 0
60 104 81 0
60 76 81 0
60 76 104 0
91 69 87 0
49 69 87 0
49 91 87 0
49 91 69 0
52 57 31 0
2 57 31 0
2 52 31 0
2 52 57 0
85 99 58 0
113 99 58 0
113 85 58 0
113 85 99 0
115 95 19 0
101 95 19 0
101 115 19 0
101 115 95 0
12 68 74 0
37 68 74 0
37 12 74 0
37 12 68 0
32 86 22 0
73 86 22 0
73 32 22 0
73 32 86 0
120 116 29 0
111 116 29 0
111 120 29 0
111 120 116 0
64 7 24 0
40 7 24 0
40 64 24 0
40 64 7 0
118 67 102 0
53 67 102 0
53 118 102 0
53 118 67 0
17 77 100 0
50 77 100 0
50 17 100 0
50 17 77 0
42 18 119 0
125 18 119 0
125 42 119 0
125 42 18 0
30 33 47 0
66 33 47 0
66 30 47 0
66 30 33 0
123 59 16 0
55 59 16 0
55 123 16 0
55 123 59 0
75 98 26 0
13 98 26 0
13 75 26 0
13 75 98 0
6 51 103 0
14 51 103 0
14 6 103 0
14 6 51 0
38 71 93 0
117 71 93 0
117 38 93 0
117 38 71 0
106 72 114 0
46 72 114 0
46 106 114 0
46 106 72 0
35 5 78 0
70 5 78 0
70 35 78 0
70 35 5 0
36 44 21 0
96 44 21 0
96 36 21 0
96 36 44 0
79 10 122 0
108 10 122 0
108 79 122 0
108 79 10 0
82 45 11 0
62 45 11 0
62 82 11 0
62 82 45 0
110 1 9 0
54 1 9 0
54 110 9 0
54 110 1 0
4 88 20 0
15 88 20 0
15 4 20 0
15 4 88 0
107 65 89 0
107 65 109 0
107 65 8 0
107 89 109 0
107 89 8 0
107 109 8 0
65 89 109 0
65 89 8 0
65 109 8 0
89 109 8 0
